LiH                                     
   1.0000000000000000     
     7.8287847029081057    0.0184022147739740    0.0436744842177140
    -0.0000000000059867    7.8831855213703577    0.0109444497488786
    -0.0000000000095877   -0.0000000000034072    7.6332104165900363
  Li             H          
              32              32
Direct
  1.9817054671128955 -0.4615590061054727 -1.4210973981086219
  1.9908342020561749 -0.4245884677547543 -1.9403613271831182
  2.0291987979331716  0.0764675410482946 -1.4473190803670182
  2.0003819712963882  0.0434600233223213 -1.9372585128028623
  1.5123565198129114 -0.4631422998001105 -1.4223489601879342
  1.5009761278969092 -0.4453976364291092 -1.9415619597553522
  1.4994078683320884  0.0453111416662948 -1.4395625528728533
  1.4920787358153047  0.0749759754227328 -1.9554193908340134
  1.4771192200171763 -0.6956853853527750 -1.1740875527008734
  1.4857876526841061 -0.6917686740837428 -1.6720984387748790
  1.4982238953402405 -0.2052814837011414 -1.2032635147179722
  1.5076711504068163 -0.1525020681581678 -1.6625242247821244
  2.0237745834200087 -0.6865011313240997 -1.1880793891256338
  1.9619016330665227 -0.6920859965869365 -1.7098418060597396
  1.9848255490801441 -0.1805732277990417 -1.1730681923310977
  1.9930394513513248 -0.1840355873006903 -1.6854182262485986
  1.2413563659888442  0.0625339636088172 -1.1946327025499690
  1.2718302311426040  0.0484902467170686 -1.6864281291080219
  1.2314950738872033 -0.4199584043288853 -1.1989048647882197
  1.2661536447359654 -0.4379143690275620 -1.6987405959330355
  1.7628840424723418  0.0709537191751443 -1.2065539892018160
  1.7525527647373844  0.0770286007123581 -1.6762495528836525
  1.7485055244828722 -0.4215982120264667 -1.1845971178647334
  1.7448584151990505 -0.4067962476727136 -1.6789000393433424
  1.2150187769175835 -0.6663000573428698 -1.9216020378849861
  1.2524959087735665 -0.6812575935175010 -1.4462894477063559
  1.2531731761067684 -0.1867855213621671 -1.9291100549777591
  1.2259867851441322 -0.1856967875773643 -1.4252590344016063
  1.7493982411143223 -0.6973680885139401 -1.9354784312219775
  1.7260537783199135 -0.7018034121966544 -1.4161537454728923
  1.7208441337659361 -0.1685614662605335 -1.9438107029069940
  1.7333301563888721 -0.1708630537252926 -1.4381194728742182
  1.2649257565892971 -0.6556014343128211 -1.1817810013660568
  1.2585150056419852 -0.6950521445902047 -1.7022316528699457
  1.2366899715948825 -0.2016212867097995 -1.1889179623891479
  1.2435972373518811 -0.1674805421763512 -1.6746199753397368
  1.7360565085394983 -0.7014677640229965 -1.1806409696057392
  1.7359989851552748 -0.7073444407917674 -1.6708498403301331
  1.7474656103131458 -0.1777402172080236 -1.1826824484643708
  1.7624647683600680 -0.1757906844274497 -1.6801347751005680
  1.2674652456927549  0.0503884660816078 -1.4356097484617691
  1.2310466249001411  0.0327844150204245 -1.9403971909709119
  1.2098635737050121 -0.4263929003423095 -1.4182292509337020
  1.2265347871913885 -0.4279538904443739 -1.9537757614594222
  1.7283483994297175  0.0558563680517394 -1.4483120337520408
  1.7756017110881346  0.0672337699055441 -1.9278288436644531
  1.7750253655838191 -0.4648904046255498 -1.4549195521056619
  1.7295923315567368 -0.4219817905587360 -1.9470964548760867
  1.4770209675407064 -0.6938438306751112 -1.4335017836486030
  1.4723646353634945 -0.6770195558022604 -1.8958872528692552
  1.4723304891734692 -0.2127593172465675 -1.4473881729001288
  1.4891149694386838 -0.1626854203039640 -1.9603811580254049
  1.9926313874455659 -0.6908264960781072 -1.4497987024242049
  1.9867827816577046 -0.6980021465438837 -1.9437561167974060
  1.9931966385787605 -0.1915982553314239 -1.4347752030340506
  1.9783410196089279 -0.1914865493283802 -1.9326203981603027
  1.4764840292260042 -0.4461711698868597 -1.1775341299154893
  1.4875834918595106 -0.4154993260957937 -1.6775044859519459
  1.4810701055683364  0.0320617038904891 -1.2116883860657408
  1.5095460900056492  0.0791435657918060 -1.6881031427292668
  1.9825393542246055 -0.4577940687402631 -1.1998173435832227
  1.9904498339985650 -0.4649735127116422 -1.6891634696973543
  2.0269030501276393  0.0453801235753682 -1.1771020717088660
  1.9888483400537196  0.0679206981683836 -1.6933672606587671
Lattice velocities and vectors
           1
 -0.10449606E-02  0.69042518E-03  0.63153930E-04
  0.81389319E-03 -0.99579222E-04 -0.64272805E-03
 -0.27077142E-03 -0.28130448E-03  0.24784923E-04
  0.78266939E+01  0.21403567E-01  0.43243899E-01
 -0.59847076E-11  0.78829870E+01  0.90780757E-02
 -0.95890564E-11 -0.34075014E-11  0.76332599E+01

  0.51845625E-02  0.12771228E-02 -0.14279177E-02
 -0.70828892E-02  0.12963830E-01 -0.37610744E-02
  0.37982440E-02 -0.48202477E-02 -0.72304152E-02
  0.53324527E-02 -0.11065969E-01  0.44120017E-03
  0.55559406E-02  0.49687227E-02 -0.19134833E-02
 -0.78414387E-02  0.73981506E-02 -0.35753691E-02
 -0.16302876E-02  0.44288838E-02  0.47021991E-02
  0.41344642E-02 -0.82231233E-02 -0.14906717E-01
  0.11314513E-01 -0.50067458E-03 -0.58345905E-02
 -0.17452549E-02  0.47496341E-02 -0.11840300E-01
 -0.41065125E-02  0.52126282E-02  0.42731869E-02
  0.16575189E-02 -0.12766564E-01  0.31920973E-02
  0.70056329E-03  0.11843889E-01 -0.15744453E-01
  0.72605609E-02 -0.48395049E-02 -0.11820166E-01
  0.43524339E-02  0.98668736E-02  0.10141128E-01
  0.26341186E-02 -0.88983944E-02  0.13012536E-02
  0.69064265E-02 -0.10690106E-01  0.51641038E-02
 -0.31516611E-02  0.96607732E-02 -0.52306219E-03
  0.89460420E-02 -0.12414099E-01  0.86572876E-02
 -0.19166610E-01  0.40147601E-02  0.13267422E-02
 -0.31718717E-02 -0.23958810E-02 -0.44228792E-02
 -0.25465080E-02 -0.12711246E-02 -0.46954016E-04
  0.90199048E-02 -0.11793841E-01 -0.82234756E-02
 -0.12419603E-02 -0.87319300E-03 -0.51156954E-02
  0.70436865E-02  0.40176561E-02  0.42838810E-02
 -0.10554846E-01 -0.12025754E-01  0.32855208E-02
 -0.72081212E-02 -0.51488468E-02 -0.14655321E-01
  0.10198522E-01  0.14432304E-02  0.45543798E-02
  0.21364535E-01  0.25178894E-02 -0.16156715E-02
  0.19904728E-02 -0.71907835E-02  0.14746077E-02
  0.10048661E-02 -0.49642145E-02 -0.49312795E-02
  0.98908992E-02 -0.29739457E-02  0.74341340E-02
 -0.21034634E-01  0.12196405E-01  0.23546927E-01
  0.24757092E-01 -0.37712902E-02 -0.34368163E-01
  0.10030211E-01  0.41850390E-02  0.63141827E-03
  0.19724230E-01 -0.88084238E-02  0.24547875E-01
 -0.39781643E-02 -0.19986034E-01  0.75669351E-03
  0.62791620E-02  0.15647282E-01 -0.25418977E-02
  0.44819257E-02 -0.79031641E-02  0.12766345E-01
 -0.27816545E-01  0.54524676E-02 -0.43303783E-01
 -0.46980817E-02  0.84740715E-02 -0.58060683E-02
 -0.21279678E-01  0.12899791E-01 -0.76662708E-02
  0.11751962E-01 -0.63177895E-02 -0.47183899E-02
 -0.28486907E-01  0.23817734E-01 -0.16452883E-01
  0.41801244E-01  0.24215748E-01 -0.59589474E-01
 -0.83992709E-02  0.29000939E-02  0.53528922E-02
 -0.34633172E-01  0.16875428E-01  0.13908481E-02
  0.66326399E-02 -0.89785792E-02  0.11765227E-01
  0.18051535E-01  0.16129486E-01  0.22699913E-02
 -0.19488235E-01  0.11315878E-01 -0.29062897E-01
  0.98649435E-02  0.37242428E-01 -0.11402345E-02
 -0.45513121E-02  0.91801097E-02  0.19393061E-01
  0.11520729E-01 -0.16753761E-01 -0.33047140E-02
 -0.32771889E-01  0.81745645E-02 -0.18425105E-01
 -0.20363874E-01 -0.19271142E-01  0.73298012E-03
 -0.24153622E-01  0.25541007E-01  0.62347962E-02
  0.52330130E-01 -0.24618096E-01 -0.21108176E-01
  0.13626675E-01 -0.83581157E-02 -0.63039570E-02
 -0.42892154E-02  0.20698189E-01  0.49112564E-02
  0.35343624E-02  0.52651811E-02  0.27241719E-03
  0.95126593E-02  0.33008253E-01 -0.79472557E-02
 -0.85491631E-02  0.40516567E-01  0.48026026E-02
  0.13396189E-01 -0.20058235E-01 -0.16837011E-01
 -0.28634666E-01  0.25217369E-01  0.47852580E-02

           1
   2.0000000000000000     
  0.10000000E+01  0.00000000E+00  0.00000000E+00  0.00000000E+00
  0.98303031E+00  0.53876142E+00  0.57852058E+00
  0.98902427E+00  0.57870551E+00  0.58659565E-01
  0.30169385E-01  0.75241956E-01  0.55078243E+00
  0.17446035E-02  0.40648766E-01  0.62852710E-01
  0.51377626E+00  0.53811446E+00  0.57714015E+00
  0.49897236E+00  0.55648480E+00  0.57510366E-01
  0.49899127E+00  0.46435929E-01  0.56167050E+00
  0.49313524E+00  0.72886811E-01  0.40671381E-01
  0.48001048E+00  0.30417974E+00  0.82436750E+00
  0.48534168E+00  0.30943757E+00  0.32480036E+00
  0.49717453E+00  0.79604387E+00  0.79786048E+00
  0.50809471E+00  0.84425776E+00  0.33831359E+00
  0.23953602E-01  0.31650331E+00  0.80779080E+00
  0.96375697E+00  0.30668113E+00  0.28705213E+00
  0.98593775E+00  0.82192709E+00  0.82957962E+00
  0.99371256E+00  0.81370497E+00  0.31492159E+00
  0.24312120E+00  0.59816975E-01  0.80671358E+00
  0.27102487E+00  0.50943477E-01  0.31343647E+00
  0.23378111E+00  0.57688580E+00  0.80335424E+00
  0.26125589E+00  0.56311752E+00  0.30163354E+00
  0.76207352E+00  0.70348059E-01  0.79229248E+00
  0.75190204E+00  0.76707869E-01  0.32374221E+00
  0.75081043E+00  0.57540330E+00  0.81323875E+00
  0.74454105E+00  0.59298308E+00  0.31976165E+00
  0.21681869E+00  0.33471438E+00  0.79508984E-01
  0.24979877E+00  0.31569866E+00  0.55459030E+00
  0.25133124E+00  0.81191316E+00  0.67062068E-01
  0.22859287E+00  0.81466230E+00  0.57591907E+00
  0.75485764E+00  0.30325590E+00  0.64066574E-01
  0.72656242E+00  0.29637083E+00  0.58423191E+00
  0.72110091E+00  0.83017836E+00  0.54897290E-01
  0.73585763E+00  0.82837556E+00  0.56381494E+00
  0.25955066E+00  0.34750752E+00  0.82441531E+00
  0.26484133E+00  0.30397386E+00  0.28872882E+00
  0.23925305E+00  0.79943354E+00  0.81123170E+00
  0.24863748E+00  0.83027098E+00  0.33178596E+00
  0.73503995E+00  0.29346432E+00  0.81956908E+00
  0.73760354E+00  0.29662109E+00  0.32847035E+00
  0.74861090E+00  0.82025155E+00  0.82065838E+00
  0.75535665E+00  0.82561197E+00  0.30855775E+00
  0.26626472E+00  0.52541690E-01  0.56287324E+00
  0.22560891E+00  0.36071997E-01  0.57621056E-01
  0.21286662E+00  0.57199605E+00  0.58051938E+00
  0.21925536E+00  0.57810869E+00  0.41947427E-01
  0.73903011E+00  0.61971166E-01  0.53600707E+00
  0.77345540E+00  0.67975383E-01  0.73584952E-01
  0.76617535E+00  0.53941511E+00  0.54548988E+00
  0.73128721E+00  0.57573564E+00  0.55979280E-01
  0.48163378E+00  0.31023587E+00  0.56706200E+00
  0.46738469E+00  0.32586493E+00  0.96522723E-01
  0.47485133E+00  0.79668265E+00  0.55228756E+00
  0.48795195E+00  0.83964683E+00  0.44703857E-01
  0.99557535E+00  0.30491490E+00  0.54932381E+00
  0.97840839E+00  0.30409457E+00  0.51461247E-01
  0.98799294E+00  0.80352657E+00  0.56545212E+00
  0.97216891E+00  0.81501024E+00  0.69040428E-01
  0.48985625E+00  0.54754664E+00  0.81686701E+00
  0.49106559E+00  0.58237067E+00  0.32082661E+00
  0.47997406E+00  0.37316037E-01  0.78959838E+00
  0.51044925E+00  0.80476948E-01  0.31196153E+00
  0.98497018E+00  0.55057389E+00  0.79807666E+00
  0.98826522E+00  0.54531191E+00  0.31209501E+00
  0.30326255E-01  0.40281835E-01  0.81847311E+00
  0.98153116E+00  0.74338488E-01  0.30792035E+00
  0.00000000E+00  0.00000000E+00  0.00000000E+00
  0.00000000E+00  0.00000000E+00  0.00000000E+00
  0.00000000E+00  0.00000000E+00  0.00000000E+00
  0.00000000E+00  0.00000000E+00  0.00000000E+00
  0.00000000E+00  0.00000000E+00  0.00000000E+00
  0.00000000E+00  0.00000000E+00  0.00000000E+00
  0.00000000E+00  0.00000000E+00  0.00000000E+00
  0.00000000E+00  0.00000000E+00  0.00000000E+00
  0.00000000E+00  0.00000000E+00  0.00000000E+00
  0.00000000E+00  0.00000000E+00  0.00000000E+00
  0.00000000E+00  0.00000000E+00  0.00000000E+00
  0.00000000E+00  0.00000000E+00  0.00000000E+00
  0.00000000E+00  0.00000000E+00  0.00000000E+00
  0.00000000E+00  0.00000000E+00  0.00000000E+00
  0.00000000E+00  0.00000000E+00  0.00000000E+00
  0.00000000E+00  0.00000000E+00  0.00000000E+00
  0.00000000E+00  0.00000000E+00  0.00000000E+00
  0.00000000E+00  0.00000000E+00  0.00000000E+00
  0.00000000E+00  0.00000000E+00  0.00000000E+00
  0.00000000E+00  0.00000000E+00  0.00000000E+00
  0.00000000E+00  0.00000000E+00  0.00000000E+00
  0.00000000E+00  0.00000000E+00  0.00000000E+00
  0.00000000E+00  0.00000000E+00  0.00000000E+00
  0.00000000E+00  0.00000000E+00  0.00000000E+00
  0.00000000E+00  0.00000000E+00  0.00000000E+00
  0.00000000E+00  0.00000000E+00  0.00000000E+00
  0.00000000E+00  0.00000000E+00  0.00000000E+00
  0.00000000E+00  0.00000000E+00  0.00000000E+00
  0.00000000E+00  0.00000000E+00  0.00000000E+00
  0.00000000E+00  0.00000000E+00  0.00000000E+00
  0.00000000E+00  0.00000000E+00  0.00000000E+00
  0.00000000E+00  0.00000000E+00  0.00000000E+00
  0.00000000E+00  0.00000000E+00  0.00000000E+00
  0.00000000E+00  0.00000000E+00  0.00000000E+00
  0.00000000E+00  0.00000000E+00  0.00000000E+00
  0.00000000E+00  0.00000000E+00  0.00000000E+00
  0.00000000E+00  0.00000000E+00  0.00000000E+00
  0.00000000E+00  0.00000000E+00  0.00000000E+00
  0.00000000E+00  0.00000000E+00  0.00000000E+00
  0.00000000E+00  0.00000000E+00  0.00000000E+00
  0.00000000E+00  0.00000000E+00  0.00000000E+00
  0.00000000E+00  0.00000000E+00  0.00000000E+00
  0.00000000E+00  0.00000000E+00  0.00000000E+00
  0.00000000E+00  0.00000000E+00  0.00000000E+00
  0.00000000E+00  0.00000000E+00  0.00000000E+00
  0.00000000E+00  0.00000000E+00  0.00000000E+00
  0.00000000E+00  0.00000000E+00  0.00000000E+00
  0.00000000E+00  0.00000000E+00  0.00000000E+00
  0.00000000E+00  0.00000000E+00  0.00000000E+00
  0.00000000E+00  0.00000000E+00  0.00000000E+00
  0.00000000E+00  0.00000000E+00  0.00000000E+00
  0.00000000E+00  0.00000000E+00  0.00000000E+00
  0.00000000E+00  0.00000000E+00  0.00000000E+00
  0.00000000E+00  0.00000000E+00  0.00000000E+00
  0.00000000E+00  0.00000000E+00  0.00000000E+00
  0.00000000E+00  0.00000000E+00  0.00000000E+00
  0.00000000E+00  0.00000000E+00  0.00000000E+00
  0.00000000E+00  0.00000000E+00  0.00000000E+00
  0.00000000E+00  0.00000000E+00  0.00000000E+00
  0.00000000E+00  0.00000000E+00  0.00000000E+00
  0.00000000E+00  0.00000000E+00  0.00000000E+00
  0.00000000E+00  0.00000000E+00  0.00000000E+00
  0.00000000E+00  0.00000000E+00  0.00000000E+00
  0.00000000E+00  0.00000000E+00  0.00000000E+00
  0.00000000E+00  0.00000000E+00  0.00000000E+00
  0.00000000E+00  0.00000000E+00  0.00000000E+00
  0.00000000E+00  0.00000000E+00  0.00000000E+00
  0.00000000E+00  0.00000000E+00  0.00000000E+00
  0.00000000E+00  0.00000000E+00  0.00000000E+00
  0.00000000E+00  0.00000000E+00  0.00000000E+00
  0.00000000E+00  0.00000000E+00  0.00000000E+00
  0.00000000E+00  0.00000000E+00  0.00000000E+00
  0.00000000E+00  0.00000000E+00  0.00000000E+00
  0.00000000E+00  0.00000000E+00  0.00000000E+00
  0.00000000E+00  0.00000000E+00  0.00000000E+00
  0.00000000E+00  0.00000000E+00  0.00000000E+00
  0.00000000E+00  0.00000000E+00  0.00000000E+00
  0.00000000E+00  0.00000000E+00  0.00000000E+00
  0.00000000E+00  0.00000000E+00  0.00000000E+00
  0.00000000E+00  0.00000000E+00  0.00000000E+00
  0.00000000E+00  0.00000000E+00  0.00000000E+00
  0.00000000E+00  0.00000000E+00  0.00000000E+00
  0.00000000E+00  0.00000000E+00  0.00000000E+00
  0.00000000E+00  0.00000000E+00  0.00000000E+00
  0.00000000E+00  0.00000000E+00  0.00000000E+00
  0.00000000E+00  0.00000000E+00  0.00000000E+00
  0.00000000E+00  0.00000000E+00  0.00000000E+00
  0.00000000E+00  0.00000000E+00  0.00000000E+00
  0.00000000E+00  0.00000000E+00  0.00000000E+00
  0.00000000E+00  0.00000000E+00  0.00000000E+00
  0.00000000E+00  0.00000000E+00  0.00000000E+00
  0.00000000E+00  0.00000000E+00  0.00000000E+00
  0.00000000E+00  0.00000000E+00  0.00000000E+00
  0.00000000E+00  0.00000000E+00  0.00000000E+00
  0.00000000E+00  0.00000000E+00  0.00000000E+00
  0.00000000E+00  0.00000000E+00  0.00000000E+00
  0.00000000E+00  0.00000000E+00  0.00000000E+00
  0.00000000E+00  0.00000000E+00  0.00000000E+00
  0.00000000E+00  0.00000000E+00  0.00000000E+00
  0.00000000E+00  0.00000000E+00  0.00000000E+00
  0.00000000E+00  0.00000000E+00  0.00000000E+00
  0.00000000E+00  0.00000000E+00  0.00000000E+00
  0.00000000E+00  0.00000000E+00  0.00000000E+00
  0.00000000E+00  0.00000000E+00  0.00000000E+00
  0.00000000E+00  0.00000000E+00  0.00000000E+00
  0.00000000E+00  0.00000000E+00  0.00000000E+00
  0.00000000E+00  0.00000000E+00  0.00000000E+00
  0.00000000E+00  0.00000000E+00  0.00000000E+00
  0.00000000E+00  0.00000000E+00  0.00000000E+00
  0.00000000E+00  0.00000000E+00  0.00000000E+00
  0.00000000E+00  0.00000000E+00  0.00000000E+00
  0.00000000E+00  0.00000000E+00  0.00000000E+00
  0.00000000E+00  0.00000000E+00  0.00000000E+00
  0.00000000E+00  0.00000000E+00  0.00000000E+00
  0.00000000E+00  0.00000000E+00  0.00000000E+00
  0.00000000E+00  0.00000000E+00  0.00000000E+00
  0.00000000E+00  0.00000000E+00  0.00000000E+00
  0.00000000E+00  0.00000000E+00  0.00000000E+00
  0.00000000E+00  0.00000000E+00  0.00000000E+00
  0.00000000E+00  0.00000000E+00  0.00000000E+00
  0.00000000E+00  0.00000000E+00  0.00000000E+00
  0.00000000E+00  0.00000000E+00  0.00000000E+00
  0.00000000E+00  0.00000000E+00  0.00000000E+00
  0.00000000E+00  0.00000000E+00  0.00000000E+00
  0.00000000E+00  0.00000000E+00  0.00000000E+00
  0.00000000E+00  0.00000000E+00  0.00000000E+00
  0.00000000E+00  0.00000000E+00  0.00000000E+00
  0.00000000E+00  0.00000000E+00  0.00000000E+00
