C  H  O 
 1.0000000000000000
    10.3799986964549440    0.0000000000000000    0.0000000000000000
     0.0000000662368207    8.2004783539878687    0.0000000000000000
    -0.0000002944187078   -0.8875137733315632    7.7332391054181446
 C   H   O  
  24  40  20
Cartesian
  0.0000000000000000  0.0000000000000000  0.0000000000000000
  9.3949975465569402  6.1838046588606694  7.4244812549815240
  8.0129978678576137  7.3982325177852726  0.2018455619618914
  7.5959976275563621 -0.2789968401622625  7.5705595034670417
  8.6519980251698616  1.6370429246017948  0.0932594057923908
  8.3429977087948757  2.1268903250951192  7.2618599448095775
  5.1899973288762977 -0.1742246834346593  7.5171566003150323
  4.2049989580346478  1.8434423335675707  0.0927900712246081
  2.8229990339486677  0.6290143835572346  7.3154249067985502
  2.4059988352852884 -0.7826277850910318  7.6788430483940502
  3.4619986761394008  6.3892113535319055  7.4238974255330543
  3.1529988858044420  5.8993638832986210  0.2552966988702156
  2.7099989320723643  3.6149830397178899  4.0133447503070467
  1.7249986490523677  2.5411016460953642  3.5649793554502871
  0.3449983545019528  2.8503443697056663  4.1067717737732243
 10.3199968603610372  4.2429976806822154  3.6193799990496687
  0.9919981177705570  5.2677098940476714  4.0751877935569585
  0.7189981922198719  6.6391116149046150  3.3870646416027457
  7.8999968850862432  4.4113862399927539  3.5028196073713675
  6.9149977793622863  5.4852660660006078  3.9511847006851917
  5.5349982768057684  5.1769025645509155  3.4105000265226164
  5.1299997641446184  3.7842504693730534  3.8978910019003163
  6.1819999581404987  2.7586585136305533  3.4409760110633414
  5.9089997334513660  1.3871430334214401  4.1300925189139646
  0.1978175478236512  0.1443618391617720  1.0852562479995937
  9.3866564552045197  5.9312019253340367  6.3343080416452144
  7.9685633155952802  7.2712783463847472  1.3221406797021795
  7.3726519742657919 -0.2863793403307477  6.4608266098961193
  8.8721056858963028  1.7264268400169451  1.1940155870369904
  7.9863186484250361  2.1268132896887275  6.2161080067099137
  9.2250298346897885  2.7916729045880491  7.3406395256792090
  4.1776764793081131  2.0746240910498517  1.1872942855960449
  2.7865500837789807  0.7678211164518586  6.2041251625382090
  2.1850791151543305  0.1086384637497767  1.0566284869080251
  3.6701154535545140  6.2924898048906925  6.3266775700516975
  2.8922730713673652  5.9183294839384768  1.3311009512486738
  3.9974304668891647  5.1964560117263368  0.1146396340260293
  2.9162841974159472  3.6076265071010929  5.1074780416052112
  1.7261263174367250  2.4307920072191616  2.4465590983300540
  0.3245869400908166  2.8031923022148879  5.2235492284454557
 10.2005656464617473  4.2510503068792413  2.5147661075426120
  1.0091115495618832  5.3736879664871307  5.1813030375335192
  0.2742243724200887  6.5157832047154791  2.3857329485806549
  1.6523477019630455  7.2267790469329762  3.3174816637951285
  8.1135239956293166  4.4205989690488741  2.4141823372045828
  6.8820980865537829  5.5297245651213487  5.0753746684709213
  5.4834568766460716  5.2788244269316023  2.3033325539894918
  5.0098622434670510  3.7614199551292735  5.0048829636694965
  6.1838135424206842  2.6310012565823251  2.3397662436761393
  5.6147355237002090  1.5212866763746429  5.1819665666929904
  6.7939394115528922  0.7278864340876169  4.0548547943149469
  9.2469815627937617  5.2112317043967158  0.3270607997305714
  6.2475936107860548  6.4975803707241777  0.2350880317672332
  7.1195114080071358  3.1248793878053238  1.0999787571909168
  5.6206659477468275  2.3400458124997279  7.5219041555655801
  2.2405173537436105  2.4968672451989913  7.6898018267959873
  1.2420988612694979  4.8464775391414889  7.4582951109752544
  1.7213051907718635  0.9961691651558968  4.8158147881043778
  8.9593168424783087  1.9504251540017654  4.0641687674496705
  0.1039674957544316 -0.4069391528642312  4.8833861412584953
  8.2807495153844393  6.9035154342021299  3.8763519076619488
  3.9280900471577480  5.8116991036922796  4.3964062460415514
  4.0537814713227611  1.1220045423670202  3.5104748181214682
  5.3904733692330744 -0.3169900652770412  6.4316457351085390
  9.9279975765032518  5.9281244302525495  0.3642870036764250
  7.0669976348080690  5.5535966440747364  7.4165744595766654
  6.3769979877222411  0.9921878963920421  0.5024024383295691
  9.8759978770983103  0.3311831910420900  7.1916603599586173
  7.2939982292461423  3.6185778232793675  0.2632985715417704
  1.1869990273396143  7.0340658407720458  7.0147542678783346
  4.7379987285857332  2.0991225014895520  7.1529844975274957
  1.8769994916410542  2.4736503542494668  0.1006960087624208
  4.6859986109577498  7.6961778103925038  0.3246174920549051
  2.1039985859658437  4.4076764101093930  7.2538583800030363
  2.1669987506809432  1.2488884135266491  3.9753201687337660
  9.8469969234777022  1.8357950633764715  3.6501171564565231
  9.0939965475558093  4.6623697444028593  4.2452779922123476
  2.2899988642737639  4.9047366855890200  3.6419775234768825
 10.1069970809123806  7.3715263267856335  4.0831119046802566
  3.9039995883888410  3.3639995912747511  3.2708860304694989
  7.3569983556362137  6.7773649769958437  3.5418373076688123
  4.6569980493732226  6.1905724788225545  3.8660468682376075
  7.4799978906677298  3.1226237300162056  3.8743000113606572
  4.9170004981332633  0.6557217226806081  3.4341591768219826
