"C24 H40 O20"
1.0
       10.3799991608         0.0000000000         0.0000000000
        0.0000000000         8.2004785538         0.0000000000
        0.0000000000        -0.8875133108         7.7332392775
    C    H    O
   24   40   20
Cartesian
     0.000000000         0.000000000         0.000000000
     9.394998367         6.183805435         7.424481563
     8.012998187         7.398232645         0.201845571
     7.595998211        -0.278996390         7.570559867
     8.651998102         1.637042965         0.093259406
     8.342998346         2.126890805         7.261860231
     5.189997724        -0.174224202         7.517156631
     4.204999096         1.843442374         0.092790071
     2.822999535         0.629014889         7.315425257
     2.405999249        -0.782627322         7.678843183
     3.461999140         6.389212203         7.423897556
     3.152999075         5.899363998         0.255296716
     2.709999321         3.614983311         4.013344637
     1.724998836         2.541101861         3.564979483
     0.344998514         2.850344583         4.106771954
    10.319997388         4.242997860         3.619380187
     0.991998248         5.267710289         4.075188091
     0.718998334         6.639112028         3.387064723
     7.899997045         4.411386400         3.502819596
     6.914998107         5.485266602         3.951184981
     5.534998791         5.176902684         3.410500141
     5.129999973         3.784250735         3.897890986
     6.182000303         2.758658689         3.440976142
     5.909000002         1.387143343         4.130092599
     0.197817600         0.144361915         1.085256299
     9.386657105         5.931202673         6.334307988
     7.968563429         7.271278686         1.322140686
     7.372652608        -0.286378969         6.460826892
     8.872106067         1.726426906         1.194015647
     7.986319390         2.126813755         6.216108075
     9.225030775         2.791673445         7.340639892
     4.177676545         2.074624150         1.187294264
     2.786550288         0.767821559         6.204125096
     2.185079245         0.108638526         1.056628541
     3.670115846         6.292490563         6.326677637
     2.892273088         5.918329638         1.331100956
     3.997430554         5.196456093         0.114639636
     2.916284377         3.607626977         5.107478122
     1.726126410         2.430792096         2.446559229
     0.324587109         2.803192582         5.223549429
    10.200566137         4.251050623         2.514766148
     1.009111770         5.373688294         5.181303171
     0.274224430         6.515783603         2.385733063
     1.652347820         7.226779658         3.317481676
     8.113524558         4.420599391         2.414182324
     6.882098320         5.529724992         5.075374783
     5.483457070         5.278824754         2.303332511
     5.009862480         3.761420292         5.004883230
     6.183813701         2.631001408         2.339766353
     5.614735734         1.521287174         5.181966460
     6.793939685         0.727886746         4.054854778
     9.246982115         5.211232096         0.327060802
     6.247593851         6.497580622         0.235088044
     7.119511836         3.124879452         1.099978742
     5.620666555         2.340046352         7.521904281
     2.240517669         2.496867908         7.689801959
     1.242099134         4.846478216         7.458295439
     1.721305375         0.996169491         4.815814717
     8.959317478         1.950425426         4.064168932
     0.103967685        -0.406938861         4.883386234
     8.280750088         6.903515979         3.876351862
     3.928090491         5.811699312         4.396406315
     4.053781710         1.122004796         3.510474837
     5.390473842        -0.316989684         6.431645894
     9.927997686         5.928124354         0.364287023
     7.066998143         5.553597473         7.416574650
     6.376998485         0.992187931         0.502402468
     9.875998749         0.331183624         7.191660451
     7.293998384         3.618577981         0.263298582
     1.186999291         7.034066413         7.014754221
     4.737999343         2.099122966         7.152984612
     1.876999490         2.473650447         0.100696012
     4.685998859         7.696178105         0.324617490
     2.103998958         4.407677067         7.253858365
     2.166998932         1.248888706         3.975320102
     9.846997366         1.835795402         3.650117309
     9.093997115         4.662370193         4.245277985
     2.289999132         4.904736809         3.641977623
    10.106997623         7.371526788         4.083112059
     3.904000010         3.363999789         3.270886018
     7.356998977         6.777365172         3.541837450
     4.656998404         6.190573087         3.866046925
     7.479998248         3.122624075         3.874300232
     4.917000827         0.655721903         3.434159345
