C  H  O                                 
    1.000000000000000     
    10.3745749385499586   -0.6279593512971260   -0.4187754904260583
    -0.5031479190238899    8.4579695456628396    0.3659811290784570
    -0.2349863896669763   -0.5952008631941367    7.6642064917338875
  C               H               O             
    24    40    20
Direct
     0.0157271174045781    0.9754065368223926    0.9837169015300762
     0.9058408532353970    0.8374408204229286    0.9616744141790270
     0.7851150227516756    0.8857424519312408    0.0432701957100301
     0.7519362990012698    0.0411611353449398    0.9665540449564782
     0.8706241728349613    0.1656073877477908    0.9979365858172011
     0.8514907332773529    0.3308234048176754    0.9378214215148043
     0.5238827804924463    0.0598993931719464    0.9646660772420684
     0.4418626060123381    0.1954196009402688    0.9933237319831695
     0.3098116331676437    0.1438285706254716    0.8977405520244904
     0.2489689196917418    0.9938379229278534    0.9833376112898556
     0.3368854574983776    0.8617541412781813    0.9638228392036112
     0.2957457952215335    0.7085745412049890    0.0564270033970763
     0.2333440477298502    0.5196639665159674    0.5200694602087952
     0.1224455067998363    0.3878872781112191    0.4673447566457504
     0.9916256635794334    0.4323973680345476    0.5148586501549531
     0.9705913226041257    0.6023812947070619    0.4725458047824320
     0.0879501353621246    0.7221983173010688    0.5320779823464389
     0.0852116538169497    0.8851627995691883    0.4549851269666710
     0.7391013106169763    0.6150874926559340    0.4819918471103766
     0.6606352682399229    0.7381945674450041    0.5573854460342313
     0.5194813273352428    0.7019915112307437    0.4885295447889407
     0.4683428960816665    0.5282645806438304    0.5202287833478447
     0.5546417691435590    0.4120209759002297    0.4457917941931392
     0.5180655858206051    0.2376164554163474    0.4907126306540389
     0.0421341941863350    0.0048734002411455    0.1239329639352993
     0.8839275095337163    0.8113079609287390    0.8209120119751930
     0.8067216320553080    0.9083293077217535    0.1855693192543954
     0.7273340204861525    0.0241040449161642    0.8247547004195172
     0.8995555380662554    0.1764165821284233    0.1397248157208979
     0.7899601362947027    0.3268624135655788    0.8156859580857890
     0.9481873186368144    0.3931112566109501    0.9165895188773761
     0.4307808948353329    0.2099141606647066    0.1343983090859977
     0.3243188353334910    0.1111440023097906    0.7605073313845543
     0.2406227548401699    0.0213416842749139    0.1230103647476931
     0.3439020986488028    0.8326609656316990    0.8240686940878238
     0.2706863917842337    0.7359474053774706    0.1895511754352011
     0.3809185897288887    0.6432013242879898    0.0668497485300694
     0.2541935994355803    0.5289919711141924    0.6633511703808265
     0.1217239503714364    0.3662781076661827    0.3253116615671178
     0.9879139480335767    0.4236691031472829    0.6572798876735850
     0.9503535056816710    0.6113473641030609    0.3309959526642368
     0.1001894269674386    0.7320899913386650    0.6754388434624665
     0.0819798681976045    0.8660421741336269    0.3121825739911276
     0.1771197085590188    0.9585043439055750    0.4966462567039945
     0.7408910955963564    0.6227535532123238    0.3385823029863735
     0.6658193731207155    0.7273536365892024    0.7005994848351267
     0.5137581643600410    0.7194239921263204    0.3463186961498346
     0.4638716303466265    0.5118376509208452    0.6616485359609181
     0.5538679581761125    0.4222002423483314    0.3026011639204688
     0.5208138083249803    0.2334790782156356    0.6339726267377648
     0.5914258104174478    0.1659622195703264    0.4449264442053045
     0.8758793567486282    0.6160216878384154    0.0424729133006004
     0.6011268735968004    0.7982207538889078    0.0390853741026408
     0.8196940101044425    0.3861361581665526    0.1812065068619742
     0.5846879266595556    0.3701542718057060    0.9827794116962107
     0.2690901660594336    0.3679325800425929    0.9391082128332366
     0.1100210924193195    0.6419358698394162    0.9872296495611318
     0.1640366777651563    0.2624324655485037    0.6755897957636104
     0.8090556905398498    0.3404436338586340    0.4741271700969143
     0.0122892849405886    0.0760423392471627    0.5247101488367836
     0.8064623850810834    0.9042957879334571    0.5202274072355200
     0.3589908617493348    0.7950567916763638    0.5183180881843256
     0.3266502434394550    0.2204210863488982    0.4563090396233866
     0.5304904659223625    0.0334203530371006    0.8236607325046701
     0.9498335506973283    0.7020727995583635    0.0428904806222363
     0.6830435799762418    0.7579036442141850    0.0115594844733946
     0.6462415898527893    0.1006203737108202    0.0489160506603523
     0.9727393003542100    0.1117839272964522    0.9055276772561897
     0.7901800115127043    0.4199376606036094    0.0651985749129960
     0.1235345459029515    0.9342758336702880    0.9018233646961441
     0.4978129988998637    0.3404963091205450    0.9241721248458492
     0.2244741521803799    0.2643919640288125    0.8963766075981400
     0.4648994000862419    0.9184498698243785    0.0418692698150061
     0.1939628060509969    0.6047545649904237    0.9640012497905847
     0.1497443456535619    0.2438093229851596    0.5459634609943841
     0.8923484364030908    0.3206300482794023    0.4266138912958714
     0.8632220772047147    0.6452198328237323    0.5642744770546079
     0.2011975440759891    0.6696180051606220    0.4606563239830861
     0.9787424577192442    0.9630646964748525    0.5031802895703251
     0.3408329623923256    0.4838142058701873    0.4341333936241340
     0.7103043769848714    0.8931457937258497    0.5100309014999604
     0.4475584323906543    0.8099156575380564    0.5745772448231319
     0.6850627612788747    0.4557110887465053    0.5224977781493082
     0.3965333012768052    0.1664959322793249    0.4109918561465755
 
  0.00000000E+00  0.00000000E+00  0.00000000E+00
  0.00000000E+00  0.00000000E+00  0.00000000E+00
  0.00000000E+00  0.00000000E+00  0.00000000E+00
  0.00000000E+00  0.00000000E+00  0.00000000E+00
  0.00000000E+00  0.00000000E+00  0.00000000E+00
  0.00000000E+00  0.00000000E+00  0.00000000E+00
  0.00000000E+00  0.00000000E+00  0.00000000E+00
  0.00000000E+00  0.00000000E+00  0.00000000E+00
  0.00000000E+00  0.00000000E+00  0.00000000E+00
  0.00000000E+00  0.00000000E+00  0.00000000E+00
  0.00000000E+00  0.00000000E+00  0.00000000E+00
  0.00000000E+00  0.00000000E+00  0.00000000E+00
  0.00000000E+00  0.00000000E+00  0.00000000E+00
  0.00000000E+00  0.00000000E+00  0.00000000E+00
  0.00000000E+00  0.00000000E+00  0.00000000E+00
  0.00000000E+00  0.00000000E+00  0.00000000E+00
  0.00000000E+00  0.00000000E+00  0.00000000E+00
  0.00000000E+00  0.00000000E+00  0.00000000E+00
  0.00000000E+00  0.00000000E+00  0.00000000E+00
  0.00000000E+00  0.00000000E+00  0.00000000E+00
  0.00000000E+00  0.00000000E+00  0.00000000E+00
  0.00000000E+00  0.00000000E+00  0.00000000E+00
  0.00000000E+00  0.00000000E+00  0.00000000E+00
  0.00000000E+00  0.00000000E+00  0.00000000E+00
  0.00000000E+00  0.00000000E+00  0.00000000E+00
  0.00000000E+00  0.00000000E+00  0.00000000E+00
  0.00000000E+00  0.00000000E+00  0.00000000E+00
  0.00000000E+00  0.00000000E+00  0.00000000E+00
  0.00000000E+00  0.00000000E+00  0.00000000E+00
  0.00000000E+00  0.00000000E+00  0.00000000E+00
  0.00000000E+00  0.00000000E+00  0.00000000E+00
  0.00000000E+00  0.00000000E+00  0.00000000E+00
  0.00000000E+00  0.00000000E+00  0.00000000E+00
  0.00000000E+00  0.00000000E+00  0.00000000E+00
  0.00000000E+00  0.00000000E+00  0.00000000E+00
  0.00000000E+00  0.00000000E+00  0.00000000E+00
  0.00000000E+00  0.00000000E+00  0.00000000E+00
  0.00000000E+00  0.00000000E+00  0.00000000E+00
  0.00000000E+00  0.00000000E+00  0.00000000E+00
  0.00000000E+00  0.00000000E+00  0.00000000E+00
  0.00000000E+00  0.00000000E+00  0.00000000E+00
  0.00000000E+00  0.00000000E+00  0.00000000E+00
  0.00000000E+00  0.00000000E+00  0.00000000E+00
  0.00000000E+00  0.00000000E+00  0.00000000E+00
  0.00000000E+00  0.00000000E+00  0.00000000E+00
  0.00000000E+00  0.00000000E+00  0.00000000E+00
  0.00000000E+00  0.00000000E+00  0.00000000E+00
  0.00000000E+00  0.00000000E+00  0.00000000E+00
  0.00000000E+00  0.00000000E+00  0.00000000E+00
  0.00000000E+00  0.00000000E+00  0.00000000E+00
  0.00000000E+00  0.00000000E+00  0.00000000E+00
  0.00000000E+00  0.00000000E+00  0.00000000E+00
  0.00000000E+00  0.00000000E+00  0.00000000E+00
  0.00000000E+00  0.00000000E+00  0.00000000E+00
  0.00000000E+00  0.00000000E+00  0.00000000E+00
  0.00000000E+00  0.00000000E+00  0.00000000E+00
  0.00000000E+00  0.00000000E+00  0.00000000E+00
  0.00000000E+00  0.00000000E+00  0.00000000E+00
  0.00000000E+00  0.00000000E+00  0.00000000E+00
  0.00000000E+00  0.00000000E+00  0.00000000E+00
  0.00000000E+00  0.00000000E+00  0.00000000E+00
  0.00000000E+00  0.00000000E+00  0.00000000E+00
  0.00000000E+00  0.00000000E+00  0.00000000E+00
  0.00000000E+00  0.00000000E+00  0.00000000E+00
  0.00000000E+00  0.00000000E+00  0.00000000E+00
  0.00000000E+00  0.00000000E+00  0.00000000E+00
  0.00000000E+00  0.00000000E+00  0.00000000E+00
  0.00000000E+00  0.00000000E+00  0.00000000E+00
  0.00000000E+00  0.00000000E+00  0.00000000E+00
  0.00000000E+00  0.00000000E+00  0.00000000E+00
  0.00000000E+00  0.00000000E+00  0.00000000E+00
  0.00000000E+00  0.00000000E+00  0.00000000E+00
  0.00000000E+00  0.00000000E+00  0.00000000E+00
  0.00000000E+00  0.00000000E+00  0.00000000E+00
  0.00000000E+00  0.00000000E+00  0.00000000E+00
  0.00000000E+00  0.00000000E+00  0.00000000E+00
  0.00000000E+00  0.00000000E+00  0.00000000E+00
  0.00000000E+00  0.00000000E+00  0.00000000E+00
  0.00000000E+00  0.00000000E+00  0.00000000E+00
  0.00000000E+00  0.00000000E+00  0.00000000E+00
  0.00000000E+00  0.00000000E+00  0.00000000E+00
  0.00000000E+00  0.00000000E+00  0.00000000E+00
  0.00000000E+00  0.00000000E+00  0.00000000E+00
  0.00000000E+00  0.00000000E+00  0.00000000E+00
