Si16                                    
    1.000000000000000     
    -5.4297069731877512   -5.3663539283419297    0.1537378529788910
    -5.4657893753634808   -0.0554826925511132   -5.5212720679172724
    -0.0000000000036509   -5.4598229057550443   -5.4598229057609791
  Si            
    16
Direct
     0.6715851637610238    0.2467379242716977   -0.2603264420815703
     0.7041786343148482    0.2245715057244011    0.2285089386815772
     0.7089220850502513    0.7426404638642975   -0.2980124625326319
     0.6922481166445736    0.7410473788375153    0.2225586722993027
     1.1734272325938939    0.2373929016624508   -0.2692969083733532
     1.2201843988736469    0.2618098457226760    0.2095141690364379
     1.1900071253995708    0.7464719481524786   -0.2755636585570634
     1.2235228317993625    0.7370583105498413    0.2229242245523615
     0.8142513110444199    0.3730968919813995   -0.1415976564515997
     0.8256927521920657    0.3545349328392818    0.3574567309410538
     0.8198879387588478    0.8721337993598675   -0.1555853845892636
     0.8436425865403382    0.8380358556220731    0.3462945368590924
     1.3003451254749170    0.3856562144714832   -0.1847537040188191
     1.3494564181335327    0.3614433812613472    0.3485817109798784
     1.3462307389395018    0.8581475373667218   -0.1614956874434823
     1.3166213583471236    0.8867866668229821    0.3429645529957258
Lattice velocities and vectors
            1
  0.29474531E-02  0.76180879E-02 -0.35687733E-02
  0.44635570E-02  0.90053847E-03  0.60042805E-02
 -0.10014374E-01 -0.68161220E-02  0.39127810E-02
 -0.54075073E+01 -0.53679444E+01  0.13268771E+00
 -0.54532584E+01 -0.59508825E-01 -0.55127672E+01
 -0.36502174E-11 -0.54626973E+01 -0.54626973E+01
 
  0.21647110E-02 -0.52656872E-02 -0.24039319E-02
  0.34265201E-02 -0.18078701E-02 -0.32502238E-02
  0.66279864E-02 -0.80961519E-03  0.19722069E-02
  0.37300841E-02 -0.21925721E-02  0.38800100E-03
 -0.13867404E-02  0.40000624E-03  0.83334976E-03
 -0.19739303E-03 -0.78035113E-03 -0.42414443E-02
 -0.29462478E-02  0.70113593E-02  0.13330539E-02
  0.75567757E-02 -0.29984599E-02 -0.49159481E-02
  0.97592841E-03 -0.10442410E-01  0.55314614E-02
  0.16749458E-02  0.22772871E-02  0.37383896E-02
  0.30963134E-02 -0.45199821E-02  0.13702648E-02
 -0.63604917E-03  0.47309787E-02  0.31353259E-02
  0.14214622E-02 -0.44033606E-02  0.24506222E-02
 -0.33919520E-02  0.23837417E-02 -0.60001234E-02
 -0.71074911E-02  0.14686400E-02 -0.16200680E-02
 -0.89420755E-03  0.10832575E-02  0.32211335E-03
 
            1
    2.000000000000000     
  0.10000000E+01  0.00000000E+00  0.00000000E+00  0.00000000E+00
  0.67171297E+00  0.24581728E+00  0.74148587E+00
  0.70328593E+00  0.22420003E+00  0.23005210E+00
  0.70821689E+00  0.74090890E+00  0.70299578E+00
  0.69203735E+00  0.73988835E+00  0.22358115E+00
  0.17376094E+00  0.23757058E+00  0.73022678E+00
  0.21958600E+00  0.26247562E+00  0.21038064E+00
  0.18950620E+00  0.74804921E+00  0.72234440E+00
  0.22178573E+00  0.73600937E+00  0.22574042E+00
  0.81700117E+00  0.37001217E+00  0.85955695E+00
  0.82565354E+00  0.35395952E+00  0.35666777E+00
  0.82040020E+00  0.87049025E+00  0.84558399E+00
  0.84346664E+00  0.83844360E+00  0.34473088E+00
  0.30134117E+00  0.38414720E+00  0.81589612E+00
  0.34854115E+00  0.36359498E+00  0.34858493E+00
  0.34696758E+00  0.86002357E+00  0.83722212E+00
  0.31664576E+00  0.88709043E+00  0.34254067E+00
  0.00000000E+00  0.00000000E+00  0.00000000E+00
  0.00000000E+00  0.00000000E+00  0.00000000E+00
  0.00000000E+00  0.00000000E+00  0.00000000E+00
  0.00000000E+00  0.00000000E+00  0.00000000E+00
  0.00000000E+00  0.00000000E+00  0.00000000E+00
  0.00000000E+00  0.00000000E+00  0.00000000E+00
  0.00000000E+00  0.00000000E+00  0.00000000E+00
  0.00000000E+00  0.00000000E+00  0.00000000E+00
  0.00000000E+00  0.00000000E+00  0.00000000E+00
  0.00000000E+00  0.00000000E+00  0.00000000E+00
  0.00000000E+00  0.00000000E+00  0.00000000E+00
  0.00000000E+00  0.00000000E+00  0.00000000E+00
  0.00000000E+00  0.00000000E+00  0.00000000E+00
  0.00000000E+00  0.00000000E+00  0.00000000E+00
  0.00000000E+00  0.00000000E+00  0.00000000E+00
  0.00000000E+00  0.00000000E+00  0.00000000E+00
  0.00000000E+00  0.00000000E+00  0.00000000E+00
  0.00000000E+00  0.00000000E+00  0.00000000E+00
  0.00000000E+00  0.00000000E+00  0.00000000E+00
  0.00000000E+00  0.00000000E+00  0.00000000E+00
  0.00000000E+00  0.00000000E+00  0.00000000E+00
  0.00000000E+00  0.00000000E+00  0.00000000E+00
  0.00000000E+00  0.00000000E+00  0.00000000E+00
  0.00000000E+00  0.00000000E+00  0.00000000E+00
  0.00000000E+00  0.00000000E+00  0.00000000E+00
  0.00000000E+00  0.00000000E+00  0.00000000E+00
  0.00000000E+00  0.00000000E+00  0.00000000E+00
  0.00000000E+00  0.00000000E+00  0.00000000E+00
  0.00000000E+00  0.00000000E+00  0.00000000E+00
  0.00000000E+00  0.00000000E+00  0.00000000E+00
  0.00000000E+00  0.00000000E+00  0.00000000E+00
  0.00000000E+00  0.00000000E+00  0.00000000E+00
