C  H  O                                 
    1.000000000000000     
    10.3745749385499586   -0.6279593512971260   -0.4187754904260583
    -0.5031479190238899    8.4579695456628396    0.3659811290784570
    -0.2349863896669763   -0.5952008631941367    7.6642064917338875
  C               H               O             
    24    40    20
Direct
     0.0157046901716892    0.9754014482095815    0.9837210236349572
     0.9057909779052479    0.8374557118039226    0.9616619975977218
     0.7851558398656032    0.8857732015725467    0.0432978840918734
     0.7519800276577778    0.0411993391739551    0.9665764311368256
     0.8706221013578558    0.1656171764425092    0.9979509195379374
     0.8514823542317783    0.3308288969928330    0.9378403129079204
     0.5238532148677121    0.0598210640115506    0.9646317993924436
     0.4418439850959702    0.1953701949129916    0.9932755619436765
     0.3098693915838800    0.1438329440122796    0.8977901112229028
     0.2490176046027898    0.9938567757679764    0.9833060971160557
     0.3369222146887506    0.8617905337221660    0.9637549025930375
     0.2957401197354558    0.7085850349541938    0.0564792165390833
     0.2333415409573646    0.5197104524392731    0.5200413513931199
     0.1224690043831074    0.3879102691066271    0.4673707499036022
     0.9916894108508121    0.4324181890130449    0.5148524819440671
     0.9706516540435645    0.6024605425189413    0.4724783020290647
     0.0879550394542485    0.7221355516118755    0.5321179340005561
     0.0852278274408535    0.8851981134618883    0.4549566354177458
     0.7390917295570608    0.6151669251594762    0.4820048353748926
     0.6605859649443699    0.7381460659764599    0.5574030914836708
     0.5194755660900513    0.7019886809943192    0.4885345360152889
     0.4683386554128730    0.5282535464087903    0.5202538759515277
     0.5546630072748032    0.4120036852978803    0.4457661818540100
     0.5181055690259433    0.2376729671732795    0.4906720351563422
     0.0420587240702094    0.0049343591511271    0.1242048764221426
     0.8838836305325845    0.8117408506726091    0.8209739599882294
     0.8068376876088651    0.9081983226827886    0.1856528516435929
     0.7271877045454821    0.0239158315316442    0.8242672246900365
     0.8996957584937810    0.1761467902691451    0.1400146247725435
     0.7899008354645498    0.3269785721198596    0.8154400040214939
     0.9481405362195817    0.3927652330463585    0.9164879668094085
     0.4306779711330401    0.2096686514577067    0.1349065263718884
     0.3243504324683002    0.1113469657180836    0.7599157068584079
     0.2407513066682734    0.0215006329837995    0.1231682918136194
     0.3438428899270495    0.8327504520188106    0.8238836179638938
     0.2706312363137558    0.7361130829079727    0.1898584424332911
     0.3808589994844635    0.6433811869493040    0.0669899022166194
     0.2540289791178904    0.5289641014244466    0.6635299482603786
     0.1217688733903596    0.3661552280504639    0.3249224792944259
     0.9878648509236406    0.4236539216197626    0.6574247213526064
     0.9502054698481390    0.6114650996803790    0.3307849038755474
     0.1001081379142282    0.7316455901089791    0.6755292010885171
     0.0820463413352630    0.8658614453483153    0.3121699024523549
     0.1773886590617509    0.9585203193600097    0.4966994254581644
     0.7407078944043994    0.6228885032573264    0.3381504440451466
     0.6659463418915905    0.7275975994555343    0.7011024550822559
     0.5138500914649452    0.7195560966945612    0.3462713209824059
     0.4640349082171218    0.5118118957309771    0.6617432944114874
     0.5535820027107111    0.4223843235302457    0.3022259986431444
     0.5208691639190046    0.2335372418480649    0.6341147887503821
     0.5913444698083292    0.1662124044489557    0.4446761844971876
     0.8758985143552688    0.6158761033974922    0.0423714580071272
     0.6008837699686158    0.7980342607666169    0.0391265631138074
     0.8199254255207676    0.3861432924837358    0.1815034169495733
     0.5847525610056403    0.3701217447242272    0.9831296876622996
     0.2690946676523865    0.3679421679469572    0.9391496269079179
     0.1097279737241310    0.6420118527327734    0.9871982550603284
     0.1641680186467873    0.2624802343794664    0.6758099889710786
     0.8086287028400507    0.3404996786249929    0.4738799041654498
     0.0123886273722951    0.0762796389607735    0.5247682759111075
     0.8065768569888406    0.9045041080481737    0.5202451795436518
     0.3589159023078208    0.7949282789445947    0.5181106961766476
     0.3265013265689968    0.2202112243706727    0.4565951110159187
     0.5305324447732963    0.0335126974282376    0.8237949025388658
     0.9498760535326427    0.7020177041114622    0.0428759263870488
     0.6830290454005350    0.7578444921575265    0.0115741371351892
     0.6462360945265172    0.1006313464391976    0.0489309654058603
     0.9727620989446862    0.1118407560652679    0.9055031529736791
     0.7901954243597380    0.4199139825287642    0.0651824967640661
     0.1235064708726901    0.9342494555102763    0.9018210903222851
     0.4978256835700398    0.3405621659898925    0.9241780059209596
     0.2244417300267023    0.2644082987789351    0.8963636910274438
     0.4648899535951248    0.9184306482998761    0.0418616567088261
     0.1939647603434359    0.6046989791800100    0.9639657884395031
     0.1497349130730393    0.2437667635105790    0.5459755122736416
     0.8923362330141339    0.3205807800569690    0.4266048077969569
     0.8632229699433404    0.6452295089938302    0.5643195384400381
     0.2012209383746823    0.6696330167255156    0.4606680548859335
     0.9786796841675084    0.9630651900146520    0.5031758473525956
     0.3408128058325615    0.4838172773213127    0.4341497749864823
     0.7103214397945334    0.8932092608404104    0.5100303581892671
     0.4475463461975514    0.8099131461416433    0.5745927389618153
     0.6850456242969842    0.4556640271367229    0.5224863270535464
     0.3964884860820622    0.1664223309107702    0.4110160627616075
 
 -0.90547708E-04  0.21108883E-05  0.60311173E-04
 -0.20904247E-03  0.77719282E-04 -0.36591665E-05
  0.15497763E-03  0.80677677E-04  0.10458969E-03
  0.15219091E-03  0.10912719E-03 -0.20284244E-04
  0.29902873E-05  0.26892625E-04  0.90118606E-04
 -0.90024604E-04 -0.27014708E-05  0.28806731E-04
 -0.10107960E-03 -0.25580264E-03 -0.85900496E-04
 -0.74119336E-04 -0.15143552E-03 -0.64259208E-04
  0.24860866E-03 -0.13203583E-04  0.38585069E-04
  0.20709005E-03  0.69960932E-04 -0.84098847E-04
  0.15119321E-03  0.12681195E-03 -0.23498149E-03
 -0.85797412E-04  0.63013771E-04  0.21799640E-03
 -0.17133126E-04  0.16852850E-03 -0.50580244E-04
  0.10272102E-03  0.52497188E-04 -0.27305430E-05
  0.25064247E-03  0.57082502E-04 -0.10171100E-04
  0.23486060E-03  0.28088209E-03 -0.25577887E-03
  0.35214234E-04 -0.22536365E-03  0.12227899E-03
  0.10585362E-03  0.13813447E-03 -0.57342682E-04
 -0.52931067E-04  0.29326155E-03 -0.87419453E-05
 -0.18894847E-03 -0.14882362E-03  0.14900333E-03
 -0.26213178E-04 -0.49854984E-05  0.14515041E-04
 -0.13154755E-04 -0.49285460E-04  0.87901638E-04
  0.79307165E-04 -0.35115899E-04 -0.15359763E-03
  0.13073083E-03  0.21763217E-03 -0.10072353E-03
 -0.45361067E-03  0.98183913E-04  0.36135392E-03
 -0.32934786E-03  0.13761907E-02 -0.37216647E-04
  0.48352280E-03 -0.48954960E-03  0.12173220E-03
 -0.26217920E-03 -0.43869525E-03 -0.38055688E-03
  0.45171594E-03 -0.96884391E-03  0.25771862E-03
  0.53583249E-04  0.39421262E-03 -0.24320299E-03
  0.21258664E-03 -0.95336261E-03 -0.38772903E-03
 -0.26617157E-03 -0.98496144E-03  0.41719134E-03
 -0.74232082E-05  0.99190161E-03 -0.69901662E-03
  0.54611734E-03  0.41155000E-03  0.64201386E-04
 -0.23640296E-03  0.38048701E-03 -0.37855466E-03
 -0.14517433E-03  0.44525725E-03  0.33219283E-03
  0.12867131E-05  0.36248641E-03  0.51870354E-03
 -0.74321326E-03 -0.68504712E-04  0.22771904E-03
  0.22062696E-03 -0.23946601E-03 -0.29407831E-03
 -0.15802242E-03  0.22354482E-04  0.87575514E-04
 -0.52766181E-03  0.45006358E-03 -0.21939002E-03
 -0.25300686E-03 -0.15278534E-02  0.16261912E-03
  0.30794523E-03 -0.60934372E-03 -0.37906600E-04
  0.57832995E-03 -0.28389699E-03 -0.59676825E-04
 -0.78751932E-03  0.51864131E-03 -0.39847157E-03
  0.36395238E-03  0.77601033E-03  0.65002831E-03
  0.37661211E-03  0.39477592E-03  0.14698873E-04
  0.65917361E-03 -0.12824656E-03  0.15801438E-03
 -0.11701440E-02  0.67995189E-03 -0.39090630E-03
  0.27742794E-03  0.19168705E-03  0.12357378E-04
 -0.61413047E-04  0.69057025E-03 -0.88319274E-03
  0.28263328E-03 -0.38967142E-03 -0.36479611E-03
 -0.30168419E-03 -0.81513003E-03 -0.37784781E-04
  0.69880784E-03  0.31230867E-03 -0.66143923E-04
 -0.28306466E-03 -0.29735562E-03  0.84941412E-03
 -0.48281357E-04 -0.14149052E-04  0.11457400E-03
 -0.51961533E-04 -0.11997141E-03 -0.34567345E-03
  0.49737477E-03  0.26674273E-04  0.15211806E-03
 -0.60883263E-03  0.26282693E-03 -0.11917103E-02
  0.88614586E-04 -0.94237271E-04  0.12120249E-04
  0.55165836E-04  0.63376602E-03  0.60057814E-04
  0.19371255E-03 -0.34760059E-03 -0.42523659E-03
 -0.28259020E-03 -0.10305679E-02  0.76643585E-03
  0.18523030E-03  0.17061340E-03  0.48867768E-04
  0.19255416E-03 -0.21242491E-03 -0.79392531E-04
 -0.88199635E-04 -0.20098990E-03  0.56298411E-04
 -0.29064993E-04  0.35452693E-04  0.48599473E-04
  0.92790529E-04  0.20585671E-03 -0.73591973E-04
  0.10229112E-03 -0.11074802E-03  0.54567260E-05
 -0.11469153E-03 -0.86663841E-04  0.32059948E-05
  0.76272941E-04  0.23160554E-03  0.59371310E-04
 -0.14123295E-03  0.72313721E-04 -0.30107927E-04
 -0.35737939E-04 -0.68168433E-04 -0.31913923E-04
 -0.47745324E-04 -0.16457308E-03 -0.10228068E-03
 -0.29957166E-04 -0.15024628E-03  0.74100580E-04
 -0.11166822E-03 -0.15918809E-03 -0.62436953E-05
 -0.26378859E-05  0.23257660E-04  0.14189937E-03
  0.10045831E-03  0.47213604E-04  0.37568791E-04
 -0.25088461E-03  0.80052702E-04  0.27404778E-05
 -0.86963732E-04  0.12778643E-04  0.66662283E-04
  0.79312657E-04  0.22529159E-03  0.58608783E-05
 -0.90144845E-04 -0.14400546E-04  0.34716347E-04
 -0.62700367E-04 -0.16124892E-03 -0.55070112E-04
 -0.20551075E-03 -0.25080492E-03  0.97049956E-04
 
            1
   0.5000000000000000     
  0.10000000E+01  0.00000000E+00  0.00000000E+00  0.00000000E+00
  0.15700413E-01  0.97540152E+00  0.98372472E+00
  0.90578107E+00  0.83745950E+00  0.96166104E+00
  0.78516375E+00  0.88577905E+00  0.43304860E-01
  0.75198767E+00  0.41206271E-01  0.96657519E+00
  0.87062248E+00  0.16561920E+00  0.99795672E+00
  0.85147804E+00  0.33082853E+00  0.93784197E+00
  0.52384745E+00  0.59805151E-01  0.96462664E+00
  0.44183986E+00  0.19536066E+00  0.99327160E+00
  0.30988146E+00  0.14383328E+00  0.89779327E+00
  0.24902769E+00  0.99386130E+00  0.98330095E+00
  0.33692949E+00  0.86179750E+00  0.96373964E+00
  0.29573651E+00  0.70858946E+00  0.56493030E-01
  0.23334110E+00  0.51972012E+00  0.52003757E+00
  0.12247412E+00  0.38791375E+00  0.46737069E+00
  0.99170169E+00  0.43242246E+00  0.51485229E+00
  0.97066338E+00  0.60247683E+00  0.47246148E+00
  0.87956321E-01  0.72212293E+00  0.53212658E+00
  0.85233244E-01  0.88520641E+00  0.45495279E+00
  0.73908997E+00  0.61518403E+00  0.48200335E+00
  0.66057665E+00  0.73813725E+00  0.55741272E+00
  0.51947431E+00  0.70198836E+00  0.48853543E+00
  0.46833803E+00  0.52825100E+00  0.52025970E+00
  0.55466649E+00  0.41200118E+00  0.44575647E+00
  0.51811234E+00  0.23768586E+00  0.49066522E+00
  0.42037645E-01  0.49401568E-02  0.12422702E+00
  0.88387148E+00  0.81182082E+00  0.82096705E+00
  0.80685994E+00  0.90817177E+00  0.18566328E+00
  0.72717313E+00  0.23887109E-01  0.82424297E+00
  0.89971536E+00  0.17609241E+00  0.14003511E+00
  0.78990412E+00  0.32700094E+00  0.81542325E+00
  0.94814750E+00  0.39270783E+00  0.91646579E+00
  0.43066302E+00  0.20961137E+00  0.13493566E+00
  0.32435167E+00  0.11140230E+00  0.75986753E+00
  0.24077902E+00  0.21527331E-01  0.12317272E+00
  0.34383186E+00  0.83277028E+00  0.82385737E+00
  0.27062602E+00  0.73614043E+00  0.18987852E+00
  0.38086096E+00  0.64340507E+00  0.67022708E-01
  0.25399318E+00  0.52895832E+00  0.66354312E+00
  0.12177839E+00  0.36614051E+00  0.32490452E+00
  0.98785741E+00  0.42365506E+00  0.65742997E+00
  0.95018080E+00  0.61148869E+00  0.33076812E+00
  0.10009187E+00  0.73155505E+00  0.67554324E+00
  0.82059481E-01  0.86582639E+00  0.31216982E+00
  0.17741577E+00  0.95850543E+00  0.49669772E+00
  0.74067053E+00  0.62291433E+00  0.33812117E+00
  0.66596726E+00  0.72764792E+00  0.70114360E+00
  0.51386947E+00  0.71958093E+00  0.34627215E+00
  0.46406674E+00  0.51180754E+00  0.66175555E+00
  0.55352657E+00  0.42241828E+00  0.30219585E+00
  0.52088316E+00  0.23354968E+00  0.63411577E+00
  0.59134193E+00  0.16624885E+00  0.44461669E+00
  0.87591049E+00  0.61585241E+00  0.42349445E-01
  0.60086681E+00  0.79798474E+00  0.39125536E-01
  0.81996004E+00  0.38616408E+00  0.18150000E+00
  0.58473946E+00  0.37010709E+00  0.98318509E+00
  0.26909248E+00  0.36794169E+00  0.93915701E+00
  0.10972453E+00  0.64200293E+00  0.98717594E+00
  0.16419244E+00  0.26248440E+00  0.67582105E+00
  0.80859792E+00  0.34050732E+00  0.47380011E+00
  0.12392675E-01  0.76274457E-01  0.52476954E+00
  0.80658141E+00  0.90454208E+00  0.52024753E+00
  0.35892358E+00  0.79490645E+00  0.51808442E+00
  0.32648605E+00  0.22015282E+00  0.45664707E+00
  0.53054198E+00  0.33523715E-01  0.82379809E+00
  0.94988465E+00  0.70200549E+00  0.42871800E-01
  0.68302431E+00  0.75783254E+00  0.11578122E-01
  0.64623487E+00  0.10063356E+00  0.48933963E-01
  0.97276705E+00  0.11185293E+00  0.90549804E+00
  0.79020008E+00  0.41990784E+00  0.65183400E-01
  0.12350068E+00  0.93424391E+00  0.90182125E+00
  0.49783013E+00  0.34057643E+00  0.92418144E+00
  0.22443504E+00  0.26441190E+00  0.89636119E+00
  0.46488798E+00  0.91842633E+00  0.41859673E-01
  0.19396181E+00  0.60468859E+00  0.96395945E+00
  0.14973317E+00  0.24375811E+00  0.54598066E+00
  0.89233037E+00  0.32057092E+00  0.42660455E+00
  0.86322315E+00  0.64523154E+00  0.56432871E+00
  0.20122600E+00  0.66963636E+00  0.46067062E+00
  0.97866776E+00  0.96306899E+00  0.50317519E+00
  0.34080874E+00  0.48381802E+00  0.43415387E+00
  0.71032592E+00  0.89322291E+00  0.51003033E+00
  0.44754200E+00  0.80991212E+00  0.57459482E+00
  0.68504204E+00  0.45565400E+00  0.52248302E+00
  0.39647799E+00  0.16640718E+00  0.41102254E+00
  0.00000000E+00  0.00000000E+00  0.00000000E+00
  0.00000000E+00  0.00000000E+00  0.00000000E+00
  0.00000000E+00  0.00000000E+00  0.00000000E+00
  0.00000000E+00  0.00000000E+00  0.00000000E+00
  0.00000000E+00  0.00000000E+00  0.00000000E+00
  0.00000000E+00  0.00000000E+00  0.00000000E+00
  0.00000000E+00  0.00000000E+00  0.00000000E+00
  0.00000000E+00  0.00000000E+00  0.00000000E+00
  0.00000000E+00  0.00000000E+00  0.00000000E+00
  0.00000000E+00  0.00000000E+00  0.00000000E+00
  0.00000000E+00  0.00000000E+00  0.00000000E+00
  0.00000000E+00  0.00000000E+00  0.00000000E+00
  0.00000000E+00  0.00000000E+00  0.00000000E+00
  0.00000000E+00  0.00000000E+00  0.00000000E+00
  0.00000000E+00  0.00000000E+00  0.00000000E+00
  0.00000000E+00  0.00000000E+00  0.00000000E+00
  0.00000000E+00  0.00000000E+00  0.00000000E+00
  0.00000000E+00  0.00000000E+00  0.00000000E+00
  0.00000000E+00  0.00000000E+00  0.00000000E+00
  0.00000000E+00  0.00000000E+00  0.00000000E+00
  0.00000000E+00  0.00000000E+00  0.00000000E+00
  0.00000000E+00  0.00000000E+00  0.00000000E+00
  0.00000000E+00  0.00000000E+00  0.00000000E+00
  0.00000000E+00  0.00000000E+00  0.00000000E+00
  0.00000000E+00  0.00000000E+00  0.00000000E+00
  0.00000000E+00  0.00000000E+00  0.00000000E+00
  0.00000000E+00  0.00000000E+00  0.00000000E+00
  0.00000000E+00  0.00000000E+00  0.00000000E+00
  0.00000000E+00  0.00000000E+00  0.00000000E+00
  0.00000000E+00  0.00000000E+00  0.00000000E+00
  0.00000000E+00  0.00000000E+00  0.00000000E+00
  0.00000000E+00  0.00000000E+00  0.00000000E+00
  0.00000000E+00  0.00000000E+00  0.00000000E+00
  0.00000000E+00  0.00000000E+00  0.00000000E+00
  0.00000000E+00  0.00000000E+00  0.00000000E+00
  0.00000000E+00  0.00000000E+00  0.00000000E+00
  0.00000000E+00  0.00000000E+00  0.00000000E+00
  0.00000000E+00  0.00000000E+00  0.00000000E+00
  0.00000000E+00  0.00000000E+00  0.00000000E+00
  0.00000000E+00  0.00000000E+00  0.00000000E+00
  0.00000000E+00  0.00000000E+00  0.00000000E+00
  0.00000000E+00  0.00000000E+00  0.00000000E+00
  0.00000000E+00  0.00000000E+00  0.00000000E+00
  0.00000000E+00  0.00000000E+00  0.00000000E+00
  0.00000000E+00  0.00000000E+00  0.00000000E+00
  0.00000000E+00  0.00000000E+00  0.00000000E+00
  0.00000000E+00  0.00000000E+00  0.00000000E+00
  0.00000000E+00  0.00000000E+00  0.00000000E+00
  0.00000000E+00  0.00000000E+00  0.00000000E+00
  0.00000000E+00  0.00000000E+00  0.00000000E+00
  0.00000000E+00  0.00000000E+00  0.00000000E+00
  0.00000000E+00  0.00000000E+00  0.00000000E+00
  0.00000000E+00  0.00000000E+00  0.00000000E+00
  0.00000000E+00  0.00000000E+00  0.00000000E+00
  0.00000000E+00  0.00000000E+00  0.00000000E+00
  0.00000000E+00  0.00000000E+00  0.00000000E+00
  0.00000000E+00  0.00000000E+00  0.00000000E+00
  0.00000000E+00  0.00000000E+00  0.00000000E+00
  0.00000000E+00  0.00000000E+00  0.00000000E+00
  0.00000000E+00  0.00000000E+00  0.00000000E+00
  0.00000000E+00  0.00000000E+00  0.00000000E+00
  0.00000000E+00  0.00000000E+00  0.00000000E+00
  0.00000000E+00  0.00000000E+00  0.00000000E+00
  0.00000000E+00  0.00000000E+00  0.00000000E+00
  0.00000000E+00  0.00000000E+00  0.00000000E+00
  0.00000000E+00  0.00000000E+00  0.00000000E+00
  0.00000000E+00  0.00000000E+00  0.00000000E+00
  0.00000000E+00  0.00000000E+00  0.00000000E+00
  0.00000000E+00  0.00000000E+00  0.00000000E+00
  0.00000000E+00  0.00000000E+00  0.00000000E+00
  0.00000000E+00  0.00000000E+00  0.00000000E+00
  0.00000000E+00  0.00000000E+00  0.00000000E+00
  0.00000000E+00  0.00000000E+00  0.00000000E+00
  0.00000000E+00  0.00000000E+00  0.00000000E+00
  0.00000000E+00  0.00000000E+00  0.00000000E+00
  0.00000000E+00  0.00000000E+00  0.00000000E+00
  0.00000000E+00  0.00000000E+00  0.00000000E+00
  0.00000000E+00  0.00000000E+00  0.00000000E+00
  0.00000000E+00  0.00000000E+00  0.00000000E+00
  0.00000000E+00  0.00000000E+00  0.00000000E+00
  0.00000000E+00  0.00000000E+00  0.00000000E+00
  0.00000000E+00  0.00000000E+00  0.00000000E+00
  0.00000000E+00  0.00000000E+00  0.00000000E+00
  0.00000000E+00  0.00000000E+00  0.00000000E+00
  0.00000000E+00  0.00000000E+00  0.00000000E+00
  0.00000000E+00  0.00000000E+00  0.00000000E+00
  0.00000000E+00  0.00000000E+00  0.00000000E+00
  0.00000000E+00  0.00000000E+00  0.00000000E+00
  0.00000000E+00  0.00000000E+00  0.00000000E+00
  0.00000000E+00  0.00000000E+00  0.00000000E+00
  0.00000000E+00  0.00000000E+00  0.00000000E+00
  0.00000000E+00  0.00000000E+00  0.00000000E+00
  0.00000000E+00  0.00000000E+00  0.00000000E+00
  0.00000000E+00  0.00000000E+00  0.00000000E+00
  0.00000000E+00  0.00000000E+00  0.00000000E+00
  0.00000000E+00  0.00000000E+00  0.00000000E+00
  0.00000000E+00  0.00000000E+00  0.00000000E+00
  0.00000000E+00  0.00000000E+00  0.00000000E+00
  0.00000000E+00  0.00000000E+00  0.00000000E+00
  0.00000000E+00  0.00000000E+00  0.00000000E+00
  0.00000000E+00  0.00000000E+00  0.00000000E+00
  0.00000000E+00  0.00000000E+00  0.00000000E+00
  0.00000000E+00  0.00000000E+00  0.00000000E+00
  0.00000000E+00  0.00000000E+00  0.00000000E+00
  0.00000000E+00  0.00000000E+00  0.00000000E+00
  0.00000000E+00  0.00000000E+00  0.00000000E+00
  0.00000000E+00  0.00000000E+00  0.00000000E+00
  0.00000000E+00  0.00000000E+00  0.00000000E+00
  0.00000000E+00  0.00000000E+00  0.00000000E+00
  0.00000000E+00  0.00000000E+00  0.00000000E+00
  0.00000000E+00  0.00000000E+00  0.00000000E+00
  0.00000000E+00  0.00000000E+00  0.00000000E+00
  0.00000000E+00  0.00000000E+00  0.00000000E+00
  0.00000000E+00  0.00000000E+00  0.00000000E+00
  0.00000000E+00  0.00000000E+00  0.00000000E+00
  0.00000000E+00  0.00000000E+00  0.00000000E+00
  0.00000000E+00  0.00000000E+00  0.00000000E+00
  0.00000000E+00  0.00000000E+00  0.00000000E+00
  0.00000000E+00  0.00000000E+00  0.00000000E+00
  0.00000000E+00  0.00000000E+00  0.00000000E+00
  0.00000000E+00  0.00000000E+00  0.00000000E+00
  0.00000000E+00  0.00000000E+00  0.00000000E+00
  0.00000000E+00  0.00000000E+00  0.00000000E+00
  0.00000000E+00  0.00000000E+00  0.00000000E+00
  0.00000000E+00  0.00000000E+00  0.00000000E+00
  0.00000000E+00  0.00000000E+00  0.00000000E+00
  0.00000000E+00  0.00000000E+00  0.00000000E+00
  0.00000000E+00  0.00000000E+00  0.00000000E+00
  0.00000000E+00  0.00000000E+00  0.00000000E+00
  0.00000000E+00  0.00000000E+00  0.00000000E+00
  0.00000000E+00  0.00000000E+00  0.00000000E+00
  0.00000000E+00  0.00000000E+00  0.00000000E+00
  0.00000000E+00  0.00000000E+00  0.00000000E+00
  0.00000000E+00  0.00000000E+00  0.00000000E+00
  0.00000000E+00  0.00000000E+00  0.00000000E+00
  0.00000000E+00  0.00000000E+00  0.00000000E+00
  0.00000000E+00  0.00000000E+00  0.00000000E+00
  0.00000000E+00  0.00000000E+00  0.00000000E+00
  0.00000000E+00  0.00000000E+00  0.00000000E+00
  0.00000000E+00  0.00000000E+00  0.00000000E+00
  0.00000000E+00  0.00000000E+00  0.00000000E+00
  0.00000000E+00  0.00000000E+00  0.00000000E+00
  0.00000000E+00  0.00000000E+00  0.00000000E+00
  0.00000000E+00  0.00000000E+00  0.00000000E+00
  0.00000000E+00  0.00000000E+00  0.00000000E+00
  0.00000000E+00  0.00000000E+00  0.00000000E+00
  0.00000000E+00  0.00000000E+00  0.00000000E+00
  0.00000000E+00  0.00000000E+00  0.00000000E+00
  0.00000000E+00  0.00000000E+00  0.00000000E+00
  0.00000000E+00  0.00000000E+00  0.00000000E+00
  0.00000000E+00  0.00000000E+00  0.00000000E+00
  0.00000000E+00  0.00000000E+00  0.00000000E+00
  0.00000000E+00  0.00000000E+00  0.00000000E+00
  0.00000000E+00  0.00000000E+00  0.00000000E+00
  0.00000000E+00  0.00000000E+00  0.00000000E+00
  0.00000000E+00  0.00000000E+00  0.00000000E+00
  0.00000000E+00  0.00000000E+00  0.00000000E+00
  0.00000000E+00  0.00000000E+00  0.00000000E+00
  0.00000000E+00  0.00000000E+00  0.00000000E+00
  0.00000000E+00  0.00000000E+00  0.00000000E+00
  0.00000000E+00  0.00000000E+00  0.00000000E+00
  0.00000000E+00  0.00000000E+00  0.00000000E+00
  0.00000000E+00  0.00000000E+00  0.00000000E+00
  0.00000000E+00  0.00000000E+00  0.00000000E+00
  0.00000000E+00  0.00000000E+00  0.00000000E+00
  0.00000000E+00  0.00000000E+00  0.00000000E+00
  0.00000000E+00  0.00000000E+00  0.00000000E+00
  0.00000000E+00  0.00000000E+00  0.00000000E+00
