ENCUT = 450.000000  ! OK
POTIM = 0.500000    ! OK
SIGMA = 0.050000    ! OK
TEBEG = 300.000000  ! OK
TEEND = 300.000000  ! OK
ALGO = Fast         ! OK
GGA = PE            ! OK
PREC = Normal       ! OK
IBRION = 0          ! OK
ISIF = 2
ISMEAR = 0          ! OK
ISTART = 0          ! OK
ISYM = 0            ! OK       
NSW = 10            ! OK
IVDW = 12           ! OK
MDALGO = 4
LCHARG = .FALSE.
LWAVE = .FALSE.
LREAL = Auto
