C  H  O 
 1.0000000000000000
    10.3745749385499586   -0.6279593512971260   -0.4187754904260583
    -0.5031479190238899    8.4579695456628396    0.3659811290784570
    -0.2349863896669763   -0.5952008631941367    7.6642064917338875
 C   H   O  
  24  40  20
Cartesian
 -0.5587716942682543  7.6545736437117409  7.8898037170878315
  8.7503768095661698  5.9418282794248256  7.2976148775184422
  7.6894072603682098  6.9728079055172065  0.3270098087962261
  7.5531822979687799 -0.6993396032070722  7.1080414923713686
  8.7145291964513216  0.2600129340191449  7.3444051731548727
  8.4470260441742280  1.7052005948284634  6.9521487006601506
  5.1782395114842261 -0.3965199296103448  7.1959327907718169
  4.2523941955191500  0.7841541352368097  7.4995168517211672
  2.9308401479480097  0.4876126064688416  6.8033659907706356
  1.8518282768428755  7.6642251290948415  7.7959663477231746
  2.8349683723672383  6.5034717235673600  7.5612436420374385
  2.6984595315982469  5.7738001514982500  0.5679420259360715
  2.0371682214631823  3.9392256342917391  4.0783881702656206
  0.9653357522921530  2.9256839818306659  3.6725089645998992
  9.9491501464874457  2.7280588490348512  3.6889637622222322
  9.6553436835539461  4.2041710772869036  3.4356889539009439
  0.4240416056045079  5.7364089893336985  4.3054351209233408
  0.3317515552230548  7.1623630065449513  3.7753682924276974
  7.2451204182274695  4.4513837377914811  3.6096779448022449
  6.3514110433429378  5.4970187771242296  4.2654245767167254
  4.9213945975930882  5.3204364592248377  3.7835609068369238
  4.4708165642920408  3.8643048130227355  3.9843451602034001
  5.4421100971507768  2.8712327200761267  3.3351618860968575
  5.1398432286697071  1.3923560329129960  3.6309328983005069
  0.4055497541157621 -0.0590044975377414  0.9339866314213591
  8.5692611257462588  5.8183399420745445  6.2183953985875755
  7.8687637609739607  7.0655822103982269  1.4168377198099642
  7.3398472714383427 -0.7437596314657270  6.0253222934844315
  9.2109092748836350  0.8440774359255883  0.7587331680007766
  7.8393653908712571  1.7830324984733090  6.0403951468534700
  9.4238612204241274  2.1839450701228174  6.7717250330052519
  4.3319690290232122  1.4249406972536556  0.9264805340037443
  3.1300393155590656  0.2837389211642747  5.7335450543431605
  2.4567150164746110 -0.0438098686660397  0.8498205775913303
  2.9552415345853151  6.3361781523455623  6.4765530651838104
  2.3934239045118715  5.9418196676639488  1.6087453851775624
  3.6125342657429842  5.1611867940252489  0.5882304543164952
  2.2151108401885726  3.9197475445670387  5.1712113759270126
  1.0020983644203327  2.8279056051991498  2.5763316168064367
  9.8815672313046878  2.5717970134099968  4.7788695306330062
  9.4741359648480152  4.3769649397346093  2.3625781723004975
  0.5123542271777201  5.7270581811979877  5.4026770140376321
  0.3414003123871180  7.0876669717153726  2.6752556433984656
  1.2385671127237299  7.7001722921578830  4.0830205739193337
  7.2935308052213683  4.6004566167509049  2.5126137011659773
  6.3769951697909537  5.3168299874454119  5.3569079904232346
  4.8866657118284706  5.5561177853198176  2.7024042769246321
  4.3994625412656259  3.6440009559994335  5.0640758564536235
  5.4626083097920919  3.0430417542641086  2.2417688005008469
  5.1367724324544923  1.2703679771991658  4.7262420000847607
  5.9477361865638869  0.7674914269574173  3.2230725487168894
  8.7669454368529447  4.6349961278678382  0.1841766835167649
  5.8256281555162071  6.3505799371131406  0.3399549093926436
  8.2671122672360244  2.6433390781039843  1.1868548722989862
  5.6487065734245903  2.1786421528222597  7.4228408521601246
  2.3858939325806361  2.3840268518272421  7.2194872760454709
  0.5864478399463033  4.7727853239560991  7.7551941665032764
  1.4110140502180064  1.7145258060404620  5.2052104883099544
  8.1109019531009618  2.0892068996909878  3.4195917868835246
 -0.0340641806893662  0.3231386846198891  4.0441705388409943
  7.7894635450325600  6.8324408365874820  3.9803587843786410
  3.2025487309938052  6.1906310889089360  4.1131360643570654
  3.1707266045592744  1.3875962263224844  3.4411235458789360
  5.2932486499724423 -0.5407016996227140  6.1027807465543145
  9.4907942035648549  5.3161250460775831  0.1878998848797750
  6.7022328438291581  5.9745221227842702  0.0799307971973513
  6.6423602645499820  0.4161157313970603  0.1410977322757206
  9.8227262371759263 -0.2043465424127339  6.5737025328338419
  7.9711702066001164  3.0168127689575095  0.3224765784241557
  0.5996232458771230  7.2877358300082680  7.2019545705337844
  4.7761103820532220  2.0172330386475257  6.9991893396272857
  1.9851593442536635  1.5617344062980725  6.8727736113392872
  4.3511788157999165  7.4513624769608136  0.4623415756107190
  1.4814734924496267  4.4194205594304456  7.5284065259667052
  1.3025677995192420  1.6431405433438155  4.2108970515190229
  8.9961629250960407  1.8975996821669885  3.0133078481338176
  8.4983242902285845  4.5793246648326438  4.1993581443543082
  1.6421741261810159  5.2630817739449389  3.6913761421164448
  9.5512324556344517  7.2314680517564645  3.7990677940967088
  3.1905515601877732  3.6196600024180485  3.3616223520419064
  6.7998712205494174  6.8045868145467123  3.9383985884567294
  4.1007032861958637  6.2272045910503442  4.5126659945614032
  6.7551650020224079  3.1132078144968105  3.8844250281742889
  3.9335148754161255  0.9145880225135801  3.0448023934984438
Cartesian
  0.0000000000000000  0.0000000000000000  0.0000000000000000
  0.0000000000000000  0.0000000000000000  0.0000000000000000
  0.0000000000000000  0.0000000000000000  0.0000000000000000
  0.0000000000000000  0.0000000000000000  0.0000000000000000
  0.0000000000000000  0.0000000000000000  0.0000000000000000
  0.0000000000000000  0.0000000000000000  0.0000000000000000
  0.0000000000000000  0.0000000000000000  0.0000000000000000
  0.0000000000000000  0.0000000000000000  0.0000000000000000
  0.0000000000000000  0.0000000000000000  0.0000000000000000
  0.0000000000000000  0.0000000000000000  0.0000000000000000
  0.0000000000000000  0.0000000000000000  0.0000000000000000
  0.0000000000000000  0.0000000000000000  0.0000000000000000
  0.0000000000000000  0.0000000000000000  0.0000000000000000
  0.0000000000000000  0.0000000000000000  0.0000000000000000
  0.0000000000000000  0.0000000000000000  0.0000000000000000
  0.0000000000000000  0.0000000000000000  0.0000000000000000
  0.0000000000000000  0.0000000000000000  0.0000000000000000
  0.0000000000000000  0.0000000000000000  0.0000000000000000
  0.0000000000000000  0.0000000000000000  0.0000000000000000
  0.0000000000000000  0.0000000000000000  0.0000000000000000
  0.0000000000000000  0.0000000000000000  0.0000000000000000
  0.0000000000000000  0.0000000000000000  0.0000000000000000
  0.0000000000000000  0.0000000000000000  0.0000000000000000
  0.0000000000000000  0.0000000000000000  0.0000000000000000
  0.0000000000000000  0.0000000000000000  0.0000000000000000
  0.0000000000000000  0.0000000000000000  0.0000000000000000
  0.0000000000000000  0.0000000000000000  0.0000000000000000
  0.0000000000000000  0.0000000000000000  0.0000000000000000
  0.0000000000000000  0.0000000000000000  0.0000000000000000
  0.0000000000000000  0.0000000000000000  0.0000000000000000
  0.0000000000000000  0.0000000000000000  0.0000000000000000
  0.0000000000000000  0.0000000000000000  0.0000000000000000
  0.0000000000000000  0.0000000000000000  0.0000000000000000
  0.0000000000000000  0.0000000000000000  0.0000000000000000
  0.0000000000000000  0.0000000000000000  0.0000000000000000
  0.0000000000000000  0.0000000000000000  0.0000000000000000
  0.0000000000000000  0.0000000000000000  0.0000000000000000
  0.0000000000000000  0.0000000000000000  0.0000000000000000
  0.0000000000000000  0.0000000000000000  0.0000000000000000
  0.0000000000000000  0.0000000000000000  0.0000000000000000
  0.0000000000000000  0.0000000000000000  0.0000000000000000
  0.0000000000000000  0.0000000000000000  0.0000000000000000
  0.0000000000000000  0.0000000000000000  0.0000000000000000
  0.0000000000000000  0.0000000000000000  0.0000000000000000
  0.0000000000000000  0.0000000000000000  0.0000000000000000
  0.0000000000000000  0.0000000000000000  0.0000000000000000
  0.0000000000000000  0.0000000000000000  0.0000000000000000
  0.0000000000000000  0.0000000000000000  0.0000000000000000
  0.0000000000000000  0.0000000000000000  0.0000000000000000
  0.0000000000000000  0.0000000000000000  0.0000000000000000
  0.0000000000000000  0.0000000000000000  0.0000000000000000
  0.0000000000000000  0.0000000000000000  0.0000000000000000
  0.0000000000000000  0.0000000000000000  0.0000000000000000
  0.0000000000000000  0.0000000000000000  0.0000000000000000
  0.0000000000000000  0.0000000000000000  0.0000000000000000
  0.0000000000000000  0.0000000000000000  0.0000000000000000
  0.0000000000000000  0.0000000000000000  0.0000000000000000
  0.0000000000000000  0.0000000000000000  0.0000000000000000
  0.0000000000000000  0.0000000000000000  0.0000000000000000
  0.0000000000000000  0.0000000000000000  0.0000000000000000
  0.0000000000000000  0.0000000000000000  0.0000000000000000
  0.0000000000000000  0.0000000000000000  0.0000000000000000
  0.0000000000000000  0.0000000000000000  0.0000000000000000
  0.0000000000000000  0.0000000000000000  0.0000000000000000
  0.0000000000000000  0.0000000000000000  0.0000000000000000
  0.0000000000000000  0.0000000000000000  0.0000000000000000
  0.0000000000000000  0.0000000000000000  0.0000000000000000
  0.0000000000000000  0.0000000000000000  0.0000000000000000
  0.0000000000000000  0.0000000000000000  0.0000000000000000
  0.0000000000000000  0.0000000000000000  0.0000000000000000
  0.0000000000000000  0.0000000000000000  0.0000000000000000
  0.0000000000000000  0.0000000000000000  0.0000000000000000
  0.0000000000000000  0.0000000000000000  0.0000000000000000
  0.0000000000000000  0.0000000000000000  0.0000000000000000
  0.0000000000000000  0.0000000000000000  0.0000000000000000
  0.0000000000000000  0.0000000000000000  0.0000000000000000
  0.0000000000000000  0.0000000000000000  0.0000000000000000
  0.0000000000000000  0.0000000000000000  0.0000000000000000
  0.0000000000000000  0.0000000000000000  0.0000000000000000
  0.0000000000000000  0.0000000000000000  0.0000000000000000
  0.0000000000000000  0.0000000000000000  0.0000000000000000
  0.0000000000000000  0.0000000000000000  0.0000000000000000
  0.0000000000000000  0.0000000000000000  0.0000000000000000
  0.0000000000000000  0.0000000000000000  0.0000000000000000
