IBRION   = -1   # no ionic update (default)
ML_LMLFF = TRUE
ML_MODE  = run
