Li H
   1.00000000000000
     4.0271000861999999    0.0000000000000000    0.0000000000000000
     0.0000000000000000    4.0271000861999999    0.0000000000000000
     0.0000000000000000    0.0000000000000000    4.0271000861999999
   Li   H
     4     4
Direct
  0.0021931998366077  0.9377313783581447  0.0399062356234574
  0.9873787948250990  0.4401410952913111  0.5508732802249812
  0.4655028962322062  0.0412653312320183  0.4666666187329044
  0.5673178577048460  0.5946132074966266  0.9329094887162737
  0.4620390886414084  0.4849929008378770  0.4952311142297970
  0.4556333788011961  0.0088289694138672  0.0177579698840076
  0.9786514408600437  0.4389104900251807  0.0101037431973456
  0.9467029288350567  0.9708730319095862  0.5445141862785567
